22	4
15	16	8	15
0	0	0	0	0	4	3	4	2	5
7	5	7	5	10	3	12	15	19
4	7	9	1	4	3	8	16	19
5	10	9	4	8	2	9	16
2	4	7	3	7	1	6
3	8	13	4	8	1	7
2	3	9	3	5	1	11
9	5	3	3	1	1	15
5	4	3	4	0	1	10
6	10	7	3	4	3	14	15	19
2	4	4	3	11	1	14
2	10	6	5	8	2	13	17
5	5	3	4	7	3	14	16	20
8	8	6	5	8	1	21
9	11	9	5	4	1	17
5	4	10	3	3	1	18
7	7	3	1	1	1	22
6	4	9	1	3	1	22
5	5	10	3	7	1	20
5	4	1	2	1	1	22
2	7	6	5	8	1	22
0	0	0	0	0	0
